TERM = { '.', 's(2)', 's(5)', 's(4)', 'in_1', 'local_0', 'local_1', 'in_2', 'in_4', 'in_3', 's(6)', 's(1)', 's(0)', 'in_5', 's(3)', 'in_0'};
null = '.';
s = 16;
n = 11;
ndeps = 5;
max_registers_sz = 5;
NR = 2;
registers = [|'local_0', 's(6)', |'local_1', 's(4)'|];
dependencies = [|'i32.store16_1', 'i32.load_3', |'i32.store16_1', 'i32.load_9', |'i32.load_3', 'call[function_index(0)]_10', |'i32.load_9', 'call[function_index(0)]_10', |'call[function_index(0)]_10', 'i32.load8_u_15'|];
GET_ENUM = { GET1, GET2, GET3, GET4, GET5, GET6, GET7};
SET_ENUM = { SET1, SET2, SET3, SET4, SET5, SET6, SET7};
TEE_ENUM = { TEE1, TEE2, TEE3, TEE4, TEE5, TEE6, TEE7};
N = 6;
OP = { 'call[function_index(0)]_10', 'i32.store16_1', 'i32.load_3', 'i32.load_9', 'i32.const_0', 'i32.load8_u_15' };
in_ops = [1, 2, 1, 1, 0, 1 ];
out_ops = [3, 0, 1, 1, 1, 1 ];
in1 = ['s(1)', 'in_1', 'in_4', 'in_5', '.', 's(6)' ];
in2 = ['.', 'in_2', '.', '.', '.', '.' ];
in3 = ['.', '.', '.', '.', '.', '.' ];
out1 = ['s(4)', '.', 's(0)', 's(1)', 's(6)', 's(5)' ];
out2 = ['s(3)', '.', '.', '.', '.', '.' ];
out3 = ['s(2)', '.', '.', '.', '.', '.' ];
comm = [false, false, false, false, false, false ];
gas = [1, 1, 1, 1, 1, 1 ];
sz = [1, 1, 1, 1, 1, 1 ];
stor = [true, true, false, false, false, false ];
lb = [ 1, 1, 1, 1, 1, 1 ];
ub = [ 16, 16, 16, 16, 16, 16 ];
startstack = [ 'in_0', 'in_1', 'in_2', 'in_3', 'in_4', 'in_5', null, null, null, null, null ];
endstack = [ 's(5)', 's(3)', 's(2)', null, null, null, null, null, null, null, null ];
